# Solution for model r3_t18_m0_0
# Finished Task: 18 / 18
# Makespan: 747.0, Total Distance: 1042.0, Total Time: 0.3229
# R O S F
0 0 9 0.0 0.0
1 1 3 0.0 0.0
2 2 8 0.0 0.0
3 1 5 130.0 165.0
4 2 16 284.0 320.0
5 1 20 296.0 324.0
6 0 -1 721.0 747.0
7 0 17 419.0 456.0
8 2 12 173.0 203.0
9 0 7 228.0 250.0
10 2 -1 688.0 710.0
11 0 6 688.0 711.0
12 2 4 234.0 262.0
13 0 11 597.0 624.0
14 1 18 564.0 598.0
15 2 19 563.0 597.0
16 2 15 453.0 483.0
17 0 13 543.0 581.0
18 1 -1 665.0 685.0
19 2 10 610.0 648.0
20 1 14 457.0 496.0
